(set-logic HORN)
(set-info :source |
    Benchmark: C_VC
    Output by Princess (http://www.philipp.ruemmer.org/princess.shtml)
|)
(set-info :status sat)
(declare-fun inv_main2 (Int Int Int Int Int Int Int Int) Bool)
(declare-fun inv_main26 (Int Int Int Int Int Int Int Int Int Int Int) Bool)
(declare-fun inv_main5 (Int Int Int Int Int Int Int Int Int Int) Bool)
(declare-fun inv_main63 (Int Int Int Int Int Int Int Int Int Int Int Int Int Int) Bool)
(assert (inv_main2 0 0 0 0 0 0 0 0))
(assert (forall ((var0 Int) (var1 Int) (var2 Int) (var3 Int) (var4 Int) (var5 Int) (var6 Int) (var7 Int) (var8 Int) (var9 Int) (var10 Int) (var11 Int) (var12 Int) (var13 Int) (var14 Int) (var15 Int) (var16 Int) (var17 Int) (var18 Int) (var19 Int) (var20 Int) (var21 Int) (var22 Int) (var23 Int) (var24 Int) (var25 Int) (var26 Int) (var27 Int) (var28 Int)) (or (not (and (inv_main26 var24 var23 var22 var21 var20 var19 var18 var17 var16 var15 var14) (and (and (= var13 0) (and (and (and (and (and (and (and (and (and (and (and (and (= var12 var24) (= var11 var23)) (= var10 var22)) (= var9 var21)) (= var8 var20)) (= var7 var19)) (= var6 var18)) (= var5 var17)) (= var4 var16)) (= var3 var15)) (= var2 var14)) (= var1 var0)) (or (and (and (and (and (and (and (<= 0 (+ (+ 3 (* (- 1) var25)) (- 1))) (<= 0 (+ (+ 3 (* 1 var25)) (- 1)))) (or (not (<= 0 (+ var25 (- 1)))) (<= 0 (+ var16 (- 1))))) (or (not (<= 0 (+ (* (- 1) var25) (- 1)))) (<= 0 (+ (* (- 1) var16) (- 1))))) (= var16 (+ (* 3 var26) var25))) (= var25 0)) (= var13 1)) (and (not (or (not (and (and (and (and (<= 0 (+ (+ 3 (* (- 1) var27)) (- 1))) (<= 0 (+ (+ 3 (* 1 var27)) (- 1)))) (or (not (<= 0 (+ var27 (- 1)))) (<= 0 (+ var16 (- 1))))) (or (not (<= 0 (+ (* (- 1) var27) (- 1)))) (<= 0 (+ (* (- 1) var16) (- 1))))) (= var16 (+ (* 3 var28) var27)))) (= var27 0))) (= var13 0))))) (and (= var15 0) (= var0 0))))) (inv_main63 var12 var11 var10 var9 var8 var7 var6 var5 var4 var3 var2 var1 var13 var13))))
(assert (forall ((var0 Int) (var1 Int) (var2 Int) (var3 Int) (var4 Int) (var5 Int) (var6 Int) (var7 Int) (var8 Int) (var9 Int) (var10 Int) (var11 Int) (var12 Int) (var13 Int) (var14 Int) (var15 Int) (var16 Int)) (or (not (and (inv_main26 var12 var11 var10 var9 var8 var7 var6 var5 var4 var3 var2) (and (not (= var1 0)) (and (not (or (not (and (and (and (and (<= 0 (+ (+ 3 (* (- 1) var13)) (- 1))) (<= 0 (+ (+ 3 (* 1 var13)) (- 1)))) (or (not (<= 0 (+ var13 (- 1)))) (<= 0 (+ var4 (- 1))))) (or (not (<= 0 (+ (* (- 1) var13) (- 1)))) (<= 0 (+ (* (- 1) var4) (- 1))))) (= var4 (+ (* 3 var14) var13)))) (= var13 2))) (and (not (or (not (and (and (and (and (<= 0 (+ (+ 3 (* (- 1) var15)) (- 1))) (<= 0 (+ (+ 3 (* 1 var15)) (- 1)))) (or (not (<= 0 (+ var15 (- 1)))) (<= 0 (+ var4 (- 1))))) (or (not (<= 0 (+ (* (- 1) var15) (- 1)))) (<= 0 (+ (* (- 1) var4) (- 1))))) (= var4 (+ (* 3 var16) var15)))) (= var15 1))) (not (= var0 0))))))) (inv_main5 var12 var11 var10 var9 var0 var1 var6 var5 (+ var4 4) 1))))
(assert (forall ((var0 Int) (var1 Int) (var2 Int) (var3 Int) (var4 Int) (var5 Int) (var6 Int) (var7 Int) (var8 Int) (var9 Int) (var10 Int) (var11 Int) (var12 Int) (var13 Int) (var14 Int) (var15 Int) (var16 Int)) (or (not (and (inv_main26 var12 var11 var10 var9 var8 var7 var6 var5 var4 var3 var2) (and (= var1 0) (and (not (or (not (and (and (and (and (<= 0 (+ (+ 3 (* (- 1) var13)) (- 1))) (<= 0 (+ (+ 3 (* 1 var13)) (- 1)))) (or (not (<= 0 (+ var13 (- 1)))) (<= 0 (+ var4 (- 1))))) (or (not (<= 0 (+ (* (- 1) var13) (- 1)))) (<= 0 (+ (* (- 1) var4) (- 1))))) (= var4 (+ (* 3 var14) var13)))) (= var13 2))) (and (not (or (not (and (and (and (and (<= 0 (+ (+ 3 (* (- 1) var15)) (- 1))) (<= 0 (+ (+ 3 (* 1 var15)) (- 1)))) (or (not (<= 0 (+ var15 (- 1)))) (<= 0 (+ var4 (- 1))))) (or (not (<= 0 (+ (* (- 1) var15) (- 1)))) (<= 0 (+ (* (- 1) var4) (- 1))))) (= var4 (+ (* 3 var16) var15)))) (= var15 1))) (not (= var0 0))))))) (inv_main5 var12 var11 var10 var9 var8 var7 var0 var1 (+ var4 5) 1))))
(assert (forall ((var0 Int) (var1 Int) (var2 Int) (var3 Int) (var4 Int) (var5 Int) (var6 Int) (var7 Int) (var8 Int) (var9 Int) (var10 Int) (var11 Int) (var12 Int) (var13 Int) (var14 Int) (var15 Int)) (or (not (and (inv_main5 var11 var10 var9 var8 var7 var6 var5 var4 var3 var2) (and (not (= var1 0)) (and (not (or (not (and (and (and (and (<= 0 (+ (+ 3 (* (- 1) var12)) (- 1))) (<= 0 (+ (+ 3 (* 1 var12)) (- 1)))) (or (not (<= 0 (+ var12 (- 1)))) (<= 0 (+ var3 (- 1))))) (or (not (<= 0 (+ (* (- 1) var12) (- 1)))) (<= 0 (+ (* (- 1) var3) (- 1))))) (= var3 (+ (* 3 var13) var12)))) (= var12 2))) (and (not (or (not (and (and (and (and (<= 0 (+ (+ 3 (* (- 1) var14)) (- 1))) (<= 0 (+ (+ 3 (* 1 var14)) (- 1)))) (or (not (<= 0 (+ var14 (- 1)))) (<= 0 (+ var3 (- 1))))) (or (not (<= 0 (+ (* (- 1) var14) (- 1)))) (<= 0 (+ (* (- 1) var3) (- 1))))) (= var3 (+ (* 3 var15) var14)))) (= var14 1))) (not (= var0 0))))))) (inv_main5 var11 var10 var9 var8 var0 var1 var5 var4 (+ var3 4) 1))))
(assert (forall ((var0 Int) (var1 Int) (var2 Int) (var3 Int) (var4 Int) (var5 Int) (var6 Int) (var7 Int) (var8 Int) (var9 Int) (var10 Int) (var11 Int) (var12 Int) (var13 Int) (var14 Int) (var15 Int)) (or (not (and (inv_main5 var11 var10 var9 var8 var7 var6 var5 var4 var3 var2) (and (= var1 0) (and (not (or (not (and (and (and (and (<= 0 (+ (+ 3 (* (- 1) var12)) (- 1))) (<= 0 (+ (+ 3 (* 1 var12)) (- 1)))) (or (not (<= 0 (+ var12 (- 1)))) (<= 0 (+ var3 (- 1))))) (or (not (<= 0 (+ (* (- 1) var12) (- 1)))) (<= 0 (+ (* (- 1) var3) (- 1))))) (= var3 (+ (* 3 var13) var12)))) (= var12 2))) (and (not (or (not (and (and (and (and (<= 0 (+ (+ 3 (* (- 1) var14)) (- 1))) (<= 0 (+ (+ 3 (* 1 var14)) (- 1)))) (or (not (<= 0 (+ var14 (- 1)))) (<= 0 (+ var3 (- 1))))) (or (not (<= 0 (+ (* (- 1) var14) (- 1)))) (<= 0 (+ (* (- 1) var3) (- 1))))) (= var3 (+ (* 3 var15) var14)))) (= var14 1))) (not (= var0 0))))))) (inv_main5 var11 var10 var9 var8 var7 var6 var0 var1 (+ var3 5) 1))))
(assert (forall ((var0 Int) (var1 Int) (var2 Int) (var3 Int) (var4 Int) (var5 Int) (var6 Int) (var7 Int) (var8 Int)) (or (not (inv_main2 var8 var7 var6 var5 var4 var3 var2 var1)) (inv_main5 var8 var7 var6 var5 var4 var3 var2 var1 var0 1))))
(assert (forall ((var0 Int) (var1 Int) (var2 Int) (var3 Int) (var4 Int) (var5 Int) (var6 Int) (var7 Int) (var8 Int) (var9 Int) (var10 Int) (var11 Int) (var12 Int) (var13 Int)) (or (not (and (inv_main26 var11 var10 var9 var8 var7 var6 var5 var4 var3 var2 var1) (and (and (and (and (and (and (<= 0 (+ (+ 3 (* (- 1) var12)) (- 1))) (<= 0 (+ (+ 3 (* 1 var12)) (- 1)))) (or (not (<= 0 (+ var12 (- 1)))) (<= 0 (+ var3 (- 1))))) (or (not (<= 0 (+ (* (- 1) var12) (- 1)))) (<= 0 (+ (* (- 1) var3) (- 1))))) (= var3 (+ (* 3 var13) var12))) (= var12 1)) (not (= var0 0))))) (inv_main26 var11 var0 var9 var8 var7 var6 var5 var4 (+ var3 2) 0 var0))))
(assert (forall ((var0 Int) (var1 Int) (var2 Int) (var3 Int) (var4 Int) (var5 Int) (var6 Int) (var7 Int) (var8 Int) (var9 Int) (var10 Int) (var11 Int) (var12 Int) (var13 Int) (var14 Int) (var15 Int)) (or (not (and (inv_main26 var11 var10 var9 var8 var7 var6 var5 var4 var3 var2 var1) (and (and (and (and (and (and (<= 0 (+ (+ 3 (* (- 1) var12)) (- 1))) (<= 0 (+ (+ 3 (* 1 var12)) (- 1)))) (or (not (<= 0 (+ var12 (- 1)))) (<= 0 (+ var3 (- 1))))) (or (not (<= 0 (+ (* (- 1) var12) (- 1)))) (<= 0 (+ (* (- 1) var3) (- 1))))) (= var3 (+ (* 3 var13) var12))) (= var12 2)) (and (not (or (not (and (and (and (and (<= 0 (+ (+ 3 (* (- 1) var14)) (- 1))) (<= 0 (+ (+ 3 (* 1 var14)) (- 1)))) (or (not (<= 0 (+ var14 (- 1)))) (<= 0 (+ var3 (- 1))))) (or (not (<= 0 (+ (* (- 1) var14) (- 1)))) (<= 0 (+ (* (- 1) var3) (- 1))))) (= var3 (+ (* 3 var15) var14)))) (= var14 1))) (not (= var0 0)))))) (inv_main26 var11 var10 var0 var8 var7 var6 var5 var4 (+ var3 1) 0 var0))))
(assert (forall ((var0 Int) (var1 Int) (var2 Int) (var3 Int) (var4 Int) (var5 Int) (var6 Int) (var7 Int) (var8 Int) (var9 Int) (var10 Int) (var11 Int) (var12 Int)) (or (not (and (inv_main5 var10 var9 var8 var7 var6 var5 var4 var3 var2 var1) (and (and (and (and (and (and (<= 0 (+ (+ 3 (* (- 1) var11)) (- 1))) (<= 0 (+ (+ 3 (* 1 var11)) (- 1)))) (or (not (<= 0 (+ var11 (- 1)))) (<= 0 (+ var2 (- 1))))) (or (not (<= 0 (+ (* (- 1) var11) (- 1)))) (<= 0 (+ (* (- 1) var2) (- 1))))) (= var2 (+ (* 3 var12) var11))) (= var11 1)) (not (= var0 0))))) (inv_main26 var10 var0 var8 var7 var6 var5 var4 var3 (+ var2 2) 0 var0))))
(assert (forall ((var0 Int) (var1 Int) (var2 Int) (var3 Int) (var4 Int) (var5 Int) (var6 Int) (var7 Int) (var8 Int) (var9 Int) (var10 Int) (var11 Int) (var12 Int) (var13 Int) (var14 Int)) (or (not (and (inv_main5 var10 var9 var8 var7 var6 var5 var4 var3 var2 var1) (and (and (and (and (and (and (<= 0 (+ (+ 3 (* (- 1) var11)) (- 1))) (<= 0 (+ (+ 3 (* 1 var11)) (- 1)))) (or (not (<= 0 (+ var11 (- 1)))) (<= 0 (+ var2 (- 1))))) (or (not (<= 0 (+ (* (- 1) var11) (- 1)))) (<= 0 (+ (* (- 1) var2) (- 1))))) (= var2 (+ (* 3 var12) var11))) (= var11 2)) (and (not (or (not (and (and (and (and (<= 0 (+ (+ 3 (* (- 1) var13)) (- 1))) (<= 0 (+ (+ 3 (* 1 var13)) (- 1)))) (or (not (<= 0 (+ var13 (- 1)))) (<= 0 (+ var2 (- 1))))) (or (not (<= 0 (+ (* (- 1) var13) (- 1)))) (<= 0 (+ (* (- 1) var2) (- 1))))) (= var2 (+ (* 3 var14) var13)))) (= var13 1))) (not (= var0 0)))))) (inv_main26 var10 var9 var0 var7 var6 var5 var4 var3 (+ var2 1) 0 var0))))
(assert (forall ((var0 Int) (var1 Int) (var2 Int) (var3 Int) (var4 Int) (var5 Int) (var6 Int) (var7 Int) (var8 Int) (var9 Int) (var10 Int) (var11 Int) (var12 Int) (var13 Int)) (not (inv_main63 var13 var12 var11 var10 var9 var8 var7 var6 var5 var4 var3 var2 var1 var0))))
(check-sat)
